feasible solution found by trivial heuristic after 0.3 seconds, objective value 0.000000e+00
presolving:
(round 1, fast)       7753 del vars, 7087 del conss, 0 add conss, 5316 chg bounds, 3596 chg sides, 792 chg coeffs, 0 upgd conss, 0 impls, 1285 clqs
   (0.5s) running MILP presolver
   (1.1s) MILP presolver (2 rounds): 0 aggregations, 0 fixings, 0 bound changes
(round 2, exhaustive) 7753 del vars, 7267 del conss, 0 add conss, 5316 chg bounds, 3678 chg sides, 792 chg coeffs, 0 upgd conss, 0 impls, 1285 clqs
(round 3, exhaustive) 7753 del vars, 7267 del conss, 0 add conss, 5316 chg bounds, 3678 chg sides, 792 chg coeffs, 1204 upgd conss, 0 impls, 1285 clqs
(round 4, medium)     7753 del vars, 7269 del conss, 5 add conss, 5316 chg bounds, 3686 chg sides, 817 chg coeffs, 1204 upgd conss, 0 impls, 1289 clqs
   (3.4s) probing: 1000/1354 (73.9%) - 0 fixings, 0 aggregations, 49481 implications, 0 bound changes
   (3.4s) probing: 1001/1354 (73.9%) - 0 fixings, 0 aggregations, 49559 implications, 0 bound changes
   (3.4s) probing aborted: 1000/1000 successive useless probings
   (3.4s) symmetry computation started: requiring (bin +, int -, cont +), (fixed: bin -, int +, cont -)
   (3.4s) no symmetry present
   (3.4s) symmetry computation started: requiring (bin +, int +, cont +), (fixed: bin -, int -, cont -)
   (3.4s) no symmetry present
presolving (5 rounds: 5 fast, 4 medium, 3 exhaustive):
 7753 deleted vars, 7269 deleted constraints, 5 added constraints, 5316 tightened bounds, 0 added holes, 3686 changed sides, 817 changed coefficients
 49559 implications, 1289 cliques
presolved problem has 35908 variables (1354 bin, 1329 int, 0 impl, 33225 cont) and 3890 constraints
   1207 constraints of type <setppc>
   2683 constraints of type <linear>
Presolving Time: 3.30
transformed 1/1 original solutions to the transformed problem space

 time | node  | left  |LP iter|LP it/n|mem/heur|mdpt |vars |cons |rows |cuts |sepa|confs|strbr|  dualbound   | primalbound  |  gap   | compl. 
p 4.6s|     1 |     0 |  1101 |     - |   locks|   0 |  35k|3890 |3890 |   0 |  0 |   0 |   0 | 3.225734e+06 | 3.034470e+04 |  Large | unknown
i 4.7s|     1 |     0 |  1101 |     - |  oneopt|   0 |  35k|3890 |3890 |   0 |  0 |   0 |   0 | 3.225734e+06 | 2.900478e+05 |1012.14%| unknown
 18.4s|     1 |     0 | 12713 |     - |   305M |   0 |  35k|3882 |3890 |   0 |  0 |   0 |   0 | 6.722696e+05 | 2.900478e+05 | 131.78%| unknown
 20.3s|     1 |     0 | 13456 |     - |   312M |   0 |  35k|3882 |3892 |   2 |  1 |   0 |   0 | 6.020099e+05 | 2.900478e+05 | 107.56%| unknown
 22.5s|     1 |     0 | 14287 |     - |   314M |   0 |  35k|3883 |3895 |   5 |  2 |   1 |   0 | 5.303564e+05 | 2.900478e+05 |  82.85%| unknown
 22.9s|     1 |     0 | 14334 |     - |   315M |   0 |  35k|3885 |3897 |   7 |  3 |   3 |   0 | 5.128825e+05 | 2.900478e+05 |  76.83%| unknown
 23.4s|     1 |     0 | 14531 |     - |   315M |   0 |  35k|3885 |3902 |  12 |  4 |   3 |   0 | 5.128782e+05 | 2.900478e+05 |  76.83%| unknown
 27.2s|     1 |     0 | 16476 |     - |   316M |   0 |  35k|3886 |3906 |  16 |  5 |   4 |   0 | 5.128726e+05 | 2.900478e+05 |  76.82%| unknown
 27.5s|     1 |     0 | 16514 |     - |   316M |   0 |  35k|3887 |3910 |  20 |  6 |   5 |   0 | 5.128706e+05 | 2.900478e+05 |  76.82%| unknown
 30.2s|     1 |     0 | 17389 |     - |   317M |   0 |  35k|3888 |3915 |  25 |  7 |   6 |   0 | 5.128672e+05 | 2.900478e+05 |  76.82%| unknown
 31.8s|     1 |     0 | 18258 |     - |   317M |   0 |  35k|3889 |3920 |  30 |  8 |   7 |   0 | 5.128657e+05 | 2.900478e+05 |  76.82%| unknown
 32.3s|     1 |     0 | 18438 |     - |   317M |   0 |  35k|3889 |3924 |  34 |  9 |   7 |   0 | 5.128625e+05 | 2.900478e+05 |  76.82%| unknown
 32.8s|     1 |     0 | 18646 |     - |   318M |   0 |  35k|3890 |3929 |  39 | 10 |   8 |   0 | 5.128594e+05 | 2.900478e+05 |  76.82%| unknown
 33.1s|     1 |     0 | 18683 |     - |   320M |   0 |  35k|3890 |3934 |  44 | 11 |   8 |   0 | 5.128578e+05 | 2.900478e+05 |  76.82%| unknown
 35.7s|     1 |     0 | 19567 |     - |   321M |   0 |  35k|3890 |3939 |  49 | 12 |   8 |   0 | 5.128559e+05 | 2.900478e+05 |  76.82%| unknown
 time | node  | left  |LP iter|LP it/n|mem/heur|mdpt |vars |cons |rows |cuts |sepa|confs|strbr|  dualbound   | primalbound  |  gap   | compl. 
 37.1s|     1 |     0 | 20275 |     - |   321M |   0 |  35k|3891 |3942 |  52 | 13 |   9 |   0 | 5.128526e+05 | 2.900478e+05 |  76.82%| unknown
d48.0s|     1 |     0 | 27076 |     - |farkasdi|   0 |  35k|3891 |3942 |   0 | 13 |   9 |   0 | 5.128526e+05 | 5.122459e+05 |   0.12%| unknown
d48.1s|     1 |     0 | 27083 |     - |farkasdi|   0 |  35k|3891 |3942 |   0 | 13 |   9 |   0 | 5.128526e+05 | 5.126436e+05 |   0.04%| unknown
d50.1s|     1 |     0 | 28499 |     - |farkasdi|   0 |  35k|3891 |3942 |   0 | 13 |   9 |   0 | 5.128526e+05 | 5.126641e+05 |   0.04%| unknown
d50.3s|     1 |     0 | 28642 |     - |farkasdi|   0 |  35k|3891 |3942 |   0 | 13 |   9 |   0 | 5.128526e+05 | 5.127824e+05 |   0.01%| unknown
(run 1, node 1) restarting after 841 global fixings of integer variables

(restart) converted 52 cuts from the global cut pool into linear constraints

presolving:
(round 1, fast)       26333 del vars, 2103 del conss, 0 add conss, 26642 chg bounds, 0 chg sides, 423 chg coeffs, 0 upgd conss, 49559 impls, 208 clqs
(round 2, fast)       26910 del vars, 2678 del conss, 0 add conss, 27249 chg bounds, 0 chg sides, 473 chg coeffs, 0 upgd conss, 49559 impls, 202 clqs
   (59.9s) running MILP presolver
   (60.0s) MILP presolver (2 rounds): 0 aggregations, 0 fixings, 1 bound changes
(round 3, exhaustive) 26910 del vars, 2689 del conss, 0 add conss, 27250 chg bounds, 0 chg sides, 473 chg coeffs, 0 upgd conss, 49559 impls, 202 clqs
(round 4, exhaustive) 26910 del vars, 2689 del conss, 0 add conss, 27250 chg bounds, 0 chg sides, 473 chg coeffs, 49 upgd conss, 49559 impls, 202 clqs
(round 5, exhaustive) 26910 del vars, 2696 del conss, 0 add conss, 27250 chg bounds, 0 chg sides, 473 chg coeffs, 49 upgd conss, 49576 impls, 202 clqs
presolving (6 rounds: 6 fast, 4 medium, 4 exhaustive):
 26910 deleted vars, 2696 deleted constraints, 0 added constraints, 27250 tightened bounds, 0 added holes, 0 changed sides, 473 changed coefficients
 49576 implications, 202 cliques
presolved problem has 9033 variables (528 bin, 489 int, 0 impl, 8016 cont) and 1247 constraints
     46 constraints of type <varbound>
    172 constraints of type <setppc>
   1020 constraints of type <linear>
      9 constraints of type <bounddisjunction>
Presolving Time: 3.75
transformed 5/9 original solutions to the transformed problem space

 time | node  | left  |LP iter|LP it/n|mem/heur|mdpt |vars |cons |rows |cuts |sepa|confs|strbr|  dualbound   | primalbound  |  gap   | compl. 
 60.5s|     1 |     0 | 40313 |     - |   326M |   0 |9033 | 695 | 686 |   0 |  0 |2280 |   0 | 5.128465e+05 | 5.127824e+05 |   0.01%| unknown
 60.5s|     1 |     0 | 40313 |     - |   326M |   0 |9033 | 695 | 660 |   0 |  0 |2280 |   0 | 5.128465e+05 | 5.127824e+05 |   0.01%| unknown
 60.6s|     1 |     0 | 40819 |     - |   327M |   0 |9033 | 669 | 662 |   2 |  1 |2280 |   0 | 5.128398e+05 | 5.127824e+05 |   0.01%| unknown
 60.7s|     1 |     0 | 40819 |     - |   327M |   0 |9033 | 670 | 661 |   2 |  1 |2281 |   0 | 5.128398e+05 | 5.127824e+05 |   0.01%| unknown
 60.7s|     1 |     0 | 40891 |     - |   327M |   0 |9033 | 669 | 665 |   6 |  2 |2281 |   0 | 5.128338e+05 | 5.127824e+05 |   0.01%| unknown
 60.7s|     1 |     0 | 40891 |     - |   327M |   0 |9033 | 670 | 665 |   6 |  2 |2282 |   0 | 5.128338e+05 | 5.127824e+05 |   0.01%| unknown
 60.8s|     1 |     0 | 41009 |     - |   327M |   0 |9033 | 670 | 669 |  10 |  3 |2282 |   0 | 5.128302e+05 | 5.127824e+05 |   0.01%| unknown
 60.8s|     1 |     0 | 41009 |     - |   327M |   0 |9033 | 670 | 669 |  10 |  3 |2282 |   0 | 5.128302e+05 | 5.127824e+05 |   0.01%| unknown
 60.9s|     1 |     0 | 41231 |     - |   327M |   0 |9033 | 670 | 673 |  14 |  4 |2282 |   0 | 5.128287e+05 | 5.127824e+05 |   0.01%| unknown
 60.9s|     1 |     0 | 41231 |     - |   327M |   0 |9033 | 671 | 670 |  14 |  4 |2283 |   0 | 5.128287e+05 | 5.127824e+05 |   0.01%| unknown
 61.0s|     1 |     0 | 41634 |     - |   327M |   0 |9033 | 668 | 674 |  18 |  5 |2283 |   0 | 5.128260e+05 | 5.127824e+05 |   0.01%| unknown
 61.1s|     1 |     0 | 41634 |     - |   327M |   0 |9033 | 669 | 674 |  18 |  5 |2284 |   0 | 5.128260e+05 | 5.127824e+05 |   0.01%| unknown
 61.1s|     1 |     0 | 41793 |     - |   327M |   0 |9033 | 669 | 677 |  21 |  6 |2284 |   0 | 5.128202e+05 | 5.127824e+05 |   0.01%| unknown
 61.1s|     1 |     0 | 41793 |     - |   327M |   0 |9033 | 670 | 677 |  21 |  6 |2285 |   0 | 5.128202e+05 | 5.127824e+05 |   0.01%| unknown
 61.2s|     1 |     0 | 41880 |     - |   327M |   0 |9033 | 670 | 681 |  25 |  7 |2285 |   0 | 5.128169e+05 | 5.127824e+05 |   0.01%| unknown
 time | node  | left  |LP iter|LP it/n|mem/heur|mdpt |vars |cons |rows |cuts |sepa|confs|strbr|  dualbound   | primalbound  |  gap   | compl. 
 61.2s|     1 |     0 | 41880 |     - |   327M |   0 |9033 | 670 | 681 |  25 |  7 |2285 |   0 | 5.128169e+05 | 5.127824e+05 |   0.01%| unknown
 61.2s|     1 |     0 | 41959 |     - |   328M |   0 |9033 | 670 | 685 |  29 |  8 |2285 |   0 | 5.128116e+05 | 5.127824e+05 |   0.01%| unknown
 61.2s|     1 |     0 | 41959 |     - |   328M |   0 |9033 | 670 | 685 |  29 |  8 |2285 |   0 | 5.128116e+05 | 5.127824e+05 |   0.01%| unknown
 61.3s|     1 |     0 | 42232 |     - |   328M |   0 |9033 | 670 | 689 |  33 |  9 |2285 |   0 | 5.128029e+05 | 5.127824e+05 |   0.00%| unknown
 61.3s|     1 |     0 | 42232 |     - |   328M |   0 |9033 | 670 | 688 |  33 |  9 |2285 |   0 | 5.128029e+05 | 5.127824e+05 |   0.00%| unknown
 61.3s|     1 |     0 | 42339 |     - |   328M |   0 |9033 | 669 | 693 |  38 | 10 |2285 |   0 | 5.127930e+05 | 5.127824e+05 |   0.00%| unknown
 61.4s|     1 |     0 | 42339 |     - |   328M |   0 |9033 | 669 | 693 |  38 | 10 |2285 |   0 | 5.127930e+05 | 5.127824e+05 |   0.00%| unknown
 61.4s|     1 |     0 | 42459 |     - |   328M |   0 |9033 | 669 | 695 |  40 | 11 |2285 |   0 | 5.127887e+05 | 5.127824e+05 |   0.00%| unknown
 61.4s|     1 |     0 | 42459 |     - |   328M |   0 |9033 | 669 | 695 |  40 | 11 |2285 |   0 | 5.127887e+05 | 5.127824e+05 |   0.00%| unknown
 61.5s|     1 |     0 | 42459 |     - |   328M |   0 |9033 | 189 | 695 |  40 | 11 |2285 |   0 | 5.127887e+05 | 5.127824e+05 |   0.00%| unknown
 61.5s|     1 |     0 | 42467 |     - |   328M |   0 |9033 | 189 | 699 |  44 | 12 |2285 |   0 | 5.127845e+05 | 5.127824e+05 |   0.00%| unknown
 61.5s|     1 |     0 | 42467 |     - |   328M |   0 |9033 | 190 | 655 |  44 | 12 |2286 |   0 | 5.127845e+05 | 5.127824e+05 |   0.00%| unknown
 61.5s|     1 |     0 | 42475 |     - |   328M |   0 |9033 | 190 | 658 |  47 | 13 |2286 |   0 | 5.127824e+05 | 5.127824e+05 |   0.00%| unknown
 61.5s|     1 |     0 | 42475 |     - |   328M |   0 |9033 | 190 | 658 |  47 | 13 |2286 |   0 | 5.127824e+05 | 5.127824e+05 |   0.00%| unknown

SCIP Status        : problem is solved [optimal solution found]
Solving Time (sec) : 61.51
Solving Nodes      : 1 (total of 2 nodes in 2 runs)
Primal Bound       : +5.12782391562231e+05 (9 solutions)
Dual Bound         : +5.12782391562231e+05
Gap                : 0.00 %
Solve Status: optimal
Solve Time: 61.54 seconds
